unsat
(define-fun f ((x0 (BitVec 64))) (BitVec 64) #b0000000000000000000000000000000000000000000000000000000000001010)
(define-fun f ((x0 (BitVec 64))) (BitVec 64) #b0000000000000000000000000000000000000000000000000000000000001010)
int-arith1.sl running time : 0 m .019167606 s
times : .019167606
